NAME : u159.83888.tour
COMMENT : Cost = 0_83888
COMMENT : Found by LKH [Keld Helsgaun] Thu Nov 16 16:24:41 2017
TYPE : TOUR
DIMENSION : 178
TOUR_SECTION
1
3
160
2
161
4
162
158
163
156
164
126
165
5
166
157
167
6
168
153
169
154
170
155
171
125
172
152
173
7
174
151
175
127
176
150
177
148
149
147
146
145
144
143
142
141
139
140
138
137
136
135
133
134
132
131
128
129
124
130
123
122
121
120
119
118
117
116
115
114
113
112
111
110
109
108
93
92
91
90
89
94
88
87
96
95
107
106
105
104
103
102
101
100
99
98
97
86
85
84
83
82
81
80
79
78
77
76
75
74
73
72
71
70
69
68
67
66
65
64
63
62
61
60
59
58
57
56
55
54
53
52
51
50
49
48
47
46
45
44
43
42
41
40
39
38
36
37
35
34
33
32
31
30
29
28
27
26
25
24
23
22
21
20
19
18
17
16
15
14
13
11
12
10
9
8
178
159
-1
EOF
